Solver command line: ['C:\\Program Files\\IBM\\ILOG\\CPLEX_Studio2211\\cplex\\bin\\x64_win64\\cplex.exe']


Welcome to IBM(R) ILOG(R) CPLEX(R) Interactive Optimizer 22.1.1.0
  with Simplex, Mixed Integer & Barrier Optimizers
5725-A06 5725-A29 5724-Y48 5724-Y49 5724-Y54 5724-Y55 5655-Y21
Copyright IBM Corp. 1988, 2022.  All Rights Reserved.

Type 'help' for a list of available commands.
Type 'help' followed by a command name for more
information on commands.

CPLEX> Logfile 'cplex.log' closed.
Logfile 'C:\Users\wangy\Documents\GitHub\re_optimization\result_site_specific\tmpalvnyugu.cplex.log' open.
CPLEX> Problem 'C:\Users\wangy\Documents\GitHub\re_optimization\result_site_specific\tmpzhu3663v.pyomo.lp' read.
Read time = 0.25 sec. (7.28 ticks)
CPLEX> Problem name         : C:\Users\wangy\Documents\GitHub\re_optimization\result_site_specific\tmpzhu3663v.pyomo.lp
Objective sense      : Minimize
Variables            :   52617  [Nneg: 27764,  Free: 8786,  Binary: 7,
                                 Other: 16060]
Objective nonzeros   :      14
Linear constraints   :   73052  [Less: 39437,  Greater: 3,  Equal: 33612]
  Nonzeros           :  181227
  RHS nonzeros       :    3714

Variables            : Min LB: 0.000000         Max UB: 1.000000       
Objective nonzeros   : Min   : 1.000000         Max   : 1.000000       
Linear constraints   :
  Nonzeros           : Min   : 0.005759502      Max   : 100000.0       
  RHS nonzeros       : Min   : 0.03000000       Max   : 1000.000       
CPLEX> Version identifier: 22.1.1.0 | 2022-11-27 | 9160aff4d
Tried aggregator 3 times.
MIP Presolve eliminated 49359 rows and 30380 columns.
Aggregator did 7762 substitutions.
Reduced MIP has 15931 rows, 14475 columns, and 46398 nonzeros.
Reduced MIP has 5 binaries, 0 generals, 0 SOSs, and 0 indicators.
Presolve time = 0.14 sec. (151.49 ticks)
Found incumbent of value 163298.502021 after 0.19 sec. (174.72 ticks)
Probing time = 0.00 sec. (0.93 ticks)
Tried aggregator 1 time.
Detecting symmetries...
Reduced MIP has 15931 rows, 14475 columns, and 46398 nonzeros.
Reduced MIP has 5 binaries, 0 generals, 0 SOSs, and 0 indicators.
Presolve time = 0.03 sec. (27.31 ticks)
Probing time = 0.00 sec. (0.85 ticks)
MIP emphasis: balance optimality and feasibility.
MIP search method: dynamic search.
Parallel mode: deterministic, using up to 16 threads.
Root relaxation solution time = 0.78 sec. (537.71 ticks)

        Nodes                                         Cuts/
   Node  Left     Objective  IInf  Best Integer    Best Bound    ItCnt     Gap

*     0+    0                       163298.5020    -6486.1693           103.97%
*     0+    0                         2222.6347    -6486.1693           391.82%
*     0     0      integral     0     2222.6143     2222.6143      250    0.00%
Elapsed time = 1.06 sec. (770.67 ticks, tree = 0.00 MB, solutions = 3)

Root node processing (before b&c):
  Real time             =    1.06 sec. (773.12 ticks)
Parallel b&c, 16 threads:
  Real time             =    0.00 sec. (0.00 ticks)
  Sync time (average)   =    0.00 sec.
  Wait time (average)   =    0.00 sec.
                          ------------
Total (root+branch&cut) =    1.06 sec. (773.12 ticks)

Solution pool: 3 solutions saved.

MIP - Integer optimal solution:  Objective =  2.2226142698e+03
Solution time =    1.06 sec.  Iterations = 250  Nodes = 0
Deterministic time = 773.27 ticks  (727.45 ticks/sec)

CPLEX> Incumbent solution written to file 'C:\Users\wangy\Documents\GitHub\re_optimization\result_site_specific\tmp17d75k46.cplex.sol'.
CPLEX> 
